; script in floating point theory

(set-option :print-success true)
(set-logic QF_FP)

(declare-fun x () Float128)
(declare-fun y () Float128)
(declare-fun z () Float128)
;(push)
(assert (fp.leq x y ))
;(check-sat)
;(get-model)
;(assert (fp.leq x (fp #b1 #b1011 #b1010)))
;(assert (fp.geq x (fp #b1 #b1011 #b1010)))
;(check-sat)
;(pop)
;(push)
;(assert (fp.leq x y))
;(assert (fp.leq y z))
;(assert (fp.leq x z))
;(check-sat)
;(get-model)
;(assert (fp.leq y x))
;(check-sat)
;(pop)
;(push)
;(assert (fp.eq x y))
;(assert (fp.eq x z))
;(assert (fp.eq y z))
;(check-sat)
;(get-model)
;(pop)
;(push)
;(assert (fp.eq x (fp.sqrt roundNearestTiesToEven x)))
(assert ( fp.eq x (fp.add RTP x x)))
(check-sat)
(get-model)
